n = 100;
C = 484;
w = [677,591,23,203,146,664,59,410,563,794,886,142,692,482,8,854,719,953,28,399,690,472,792,817,212,678,337,216,163,403,61,60,817,41,632,473,434,174,512,184,423,212,360,556,983,673,680,190,593,783,788,913,243,180,273,575,654,403,467,922,999,625,329,660,872,569,31,984,180,57,948,759,167,491,290,851,260,829,288,199,53,953,91,493,47,837,296,886,427,876,348,959,86,12,797,542,202,182,742,865];
p = [776,106,869,604,91,744,750,300,671,667,565,707,53,887,955,447,386,798,672,885,862,775,358,157,245,386,588,209,657,118,3,634,599,83,852,59,158,632,473,404,995,22,95,305,975,987,522,488,735,528,513,623,187,283,30,187,440,134,279,674,191,302,312,722,907,453,94,743,110,680,533,249,517,498,131,595,511,623,884,574,483,322,748,348,415,688,663,398,25,338,661,718,706,423,390,957,622,887,730,503];
